;; sat

(declare-const x1 sl.list.loc)
(declare-const x2 sl.list.loc)
(declare-const x3 sl.list.loc)
(declare-const x4 sl.list.loc)
(declare-const x5 sl.list.loc)
(declare-const x6 sl.list.loc)
(declare-const x7 sl.list.loc)
(declare-const x8 sl.list.loc)
(declare-const x9 sl.list.loc)
(declare-const x10 sl.list.loc)
(declare-const x11 sl.list.loc)
(declare-const x12 sl.list.loc)
(declare-const x13 sl.list.loc)
(declare-const x14 sl.list.loc)
(declare-const x15 sl.list.loc)
(declare-const x16 sl.list.loc)
(declare-const x17 sl.list.loc)
(declare-const x18 sl.list.loc)

(assert (sl.sepcon (sl.sepcon (sl.sepcon (sl.sepcon (sl.sepcon (sl.sepcon (sl.sepcon (sl.sepcon (sl.sepcon (sl.sepcon (sl.sepcon (sl.sepcon (sl.sepcon (sl.sepcon (sl.sepcon (sl.sepcon (sl.sepcon (sl.sepcon (sl.sepcon (sl.sepcon (sl.sepcon (sl.sepcon (sl.sepcon (sl.sepcon (sl.sepcon (sl.sepcon (sl.sepcon (sl.sepcon (sl.sepcon (sl.sepcon (sl.sepcon (sl.sepcon (sl.sepcon (sl.sepcon (sl.list.eq sl.list.null sl.list.null)
 (sl.list.neq x6 x16)
)
 (sl.list.neq x6 x17)
)
 (sl.list.neq x6 x12)
)
 (sl.list.neq x3 x18)
)
 (sl.list.neq x3 x7)
)
 (sl.list.neq x3 x10)
)
 (sl.list.neq x3 x13)
)
 (sl.list.neq x3 x9)
)
 (sl.list.neq x3 x15)
)
 (sl.list.neq x7 x11)
)
 (sl.list.neq x7 x16)
)
 (sl.list.neq x7 x12)
)
 (sl.list.neq x9 x10)
)
 (sl.list.neq x9 x14)
)
 (sl.list.neq x12 x18)
)
 (sl.list.neq x12 x13)
)
 (sl.list.neq x12 x15)
)
 (sl.list.neq x2 x11)
)
 (sl.list.neq x2 x4)
)
 (sl.list.neq x2 x7)
)
 (sl.list.neq x2 x14)
)
 (sl.list.neq x15 x16)
)
 (sl.list.neq x8 x13)
)
 (sl.list.neq x4 x9)
)
 (sl.list.neq x1 x11)
)
 (sl.list.neq x1 x4)
)
 (sl.list.neq x1 x7)
)
 (sl.list.neq x1 x10)
)
 (sl.list.neq x1 x2)
)
 (sl.list.neq x13 x16)
)
 (sl.list.neq x13 x17)
)
 (sl.list.neq x10 x11)
)
 (sl.list.neq x5 x14)
)
 (sl.sepcon (sl.sepcon (sl.sepcon (sl.sepcon (sl.sepcon (sl.sepcon (sl.sepcon (sl.list.seg x5 x15)
 (sl.list.seg x5 x9)
)
 (sl.list.seg x5 x4)
)
 (sl.list.seg x16 x13)
)
 (sl.list.seg x4 x12)
)
 (sl.list.seg x4 x6)
)
 (sl.list.seg x15 x1)
)
 (sl.list.seg x7 x13)
)
)
)

